147
100000
10572
24709
9462
39224
21345
24857
18389
26917
1957
26876
43263
36898
2015
48799
21019
4805
3958
5543
28294
8641
36204
13342
35441
23223
36884
27098
15185
42141
1978
5074
28255
12440
8989
21531
20809
34319
9896
389
13455
28134
7399
145
2712
17285
22775
9454
8711
14700
7679
44460
12588
5306
40386
47612
35
29854
12873
17538
18235
37716
45808
16064
36289
45871
12049
37547
48390
27378
180
15915
15562
16184
36699
36606
17866
2176
31297
20340
13857
5056
18997
24094
11013
47642
28136
15321
33488
6967
26985
44989
2473
5235
390
4645
4940
41671
9733
4402
28076
6471
4154
43573
25470
37462
8410
16973
16912
17859
40465
41894
23395
2577
4262
9598
15290
24957
5820
44459
16351
48
19500
30826
3062
34425
49374
1006
14665
4196
44781
14550
18378
18682
7729
19025
26
44675
42552
40891
32741
22190
24307
6029
14398
12803
1578
41769
9318
